100 5
25 200
10
30
10
10
10
20
20
20
10
10
10
20
30
10
40
40
20
20
10
10
20
20
10
10
40
10
10
20
10
10
20
30
40
20
10
10
20
30
20
10
10
20
10
10
10
30
10
10
10
10
10
10
20
40
10
30
40
30
10
20
10
20
50
10
10
10
10
10
10
30
20
10
10
50
20
10
10
20
10
10
30
20
10
20
30
10
20
30
10
10
10
20
40
10
30
10
30
20
10
20
40 50 0 1236 0 0
45 68 885 994 90 3
45 70 802 893 90 1
42 66 25 186 90 3
42 68 699 810 90 2
42 65 15 120 90 3
40 69 580 743 90 3
40 66 142 253 90 2
38 68 220 359 90 3
38 70 499 640 90 1
35 66 331 436 90 3
35 69 420 533 90 3
25 85 617 756 90 3
22 75 30 155 90 1
22 85 541 646 90 3
20 80 362 451 90 2
20 85 448 555 90 3
18 75 75 172 90 1
15 75 142 291 90 2
15 80 244 379 90 3
30 50 10 137 90 1
30 52 888 991 90 1
28 52 776 919 90 1
28 55 709 800 90 3
25 50 25 184 90 2
25 52 142 251 90 1
25 55 582 741 90 3
23 52 234 343 90 2
23 55 523 616 90 3
20 50 335 428 90 1
20 55 422 531 90 1
10 35 181 256 90 1
10 40 31 170 90 2
8 40 52 193 90 3
8 45 719 848 90 1
5 35 252 375 90 3
5 45 639 742 90 2
2 40 357 460 90 1
0 40 457 544 90 3
0 45 538 653 90 1
35 30 236 349 90 3
35 32 132 269 90 3
33 32 27 190 90 3
33 35 16 144 90 1
32 30 332 439 90 2
30 30 512 629 90 1
30 32 417 540 90 3
30 35 982 1127 90 1
28 30 601 724 90 2
28 35 969 1098 90 1
26 32 783 912 90 3
25 30 695 816 90 1
25 35 883 998 90 1
44 5 255 378 90 1
42 10 150 293 90 1
42 15 63 190 90 1
40 5 359 462 90 2
40 15 35 140 90 3
38 5 439 566 90 3
38 15 607 784 90 1
35 5 529 662 90 3
50 30 491 650 90 2
50 35 235 344 90 2
50 40 147 242 90 3
48 30 601 724 90 2
48 40 50 155 90 3
47 35 802 899 90 2
47 40 12 143 90 1
45 30 712 799 90 2
45 35 889 996 90 2
95 30 353 490 90 2
95 35 260 393 90 3
53 30 422 533 90 2
92 30 442 587 90 2
53 35 323 442 90 2
45 65 962 1103 90 1
90 35 175 288 90 2
88 30 539 678 90 2
88 35 78 201 90 1
87 30 636 763 90 3
85 25 744 845 90 1
85 35 47 201 90 1
75 55 344 445 90 2
72 55 228 375 90 2
70 58 425 556 90 1
68 60 527 640 90 1
66 55 141 270 90 1
65 55 56 173 90 2
65 60 614 739 90 2
63 58 705 834 90 2
60 55 20 148 90 3
60 60 809 916 90 2
67 85 331 478 90 3
65 85 453 540 90 2
65 82 260 361 90 3
62 80 174 261 90 2
60 80 64 187 90 1
60 85 531 652 90 3
58 75 30 139 90 3
55 80 705 858 90 2
55 85 608 765 90 3
31 7 0 1236 45 4
80 55 0 1236 45 4
85 81 0 1236 45 4
44 10 0 1236 45 4
7 83 0 1236 45 4
0 1 0 0 0
0 0 0 0 0
0 0 0 0 1
0 0 0 0 1
0 1 0 0 0
0 0 0 0 1
0 0 0 0 1
0 0 0 0 1
0 0 0 0 0
0 0 0 0 1
0 0 0 0 1
0 0 0 0 1
0 0 0 0 0
0 0 0 0 1
0 0 0 0 1
0 0 0 0 1
0 0 0 0 0
0 0 0 0 1
0 0 0 0 1
0 0 0 0 0
0 0 0 0 0
0 0 0 0 0
0 0 0 0 1
0 0 0 0 1
0 0 0 0 0
0 0 0 0 1
0 0 0 0 1
0 0 0 0 1
0 0 0 0 0
0 0 0 0 0
0 0 0 0 0
1 0 0 0 0
1 0 0 0 0
0 0 0 0 0
1 0 0 0 0
0 0 0 0 1
0 0 0 0 0
0 0 0 0 1
0 0 0 0 0
0 0 0 1 0
0 0 0 1 0
0 0 0 1 0
0 0 0 0 0
1 0 0 0 0
0 0 0 0 0
1 0 0 0 0
0 0 0 0 0
1 0 0 0 0
0 0 0 0 0
1 0 0 0 0
0 0 0 0 0
0 0 0 0 0
0 0 0 0 0
0 0 0 0 0
0 0 0 0 0
0 0 0 1 0
0 0 0 1 0
1 0 0 0 0
0 0 0 0 0
1 0 0 0 0
0 0 0 1 0
0 0 0 1 0
0 0 0 1 0
0 0 0 1 0
0 0 0 1 0
0 0 0 1 0
0 0 0 0 0
0 0 0 1 0
0 0 0 1 0
0 1 0 0 0
0 1 0 0 0
0 0 0 1 0
0 1 0 0 0
0 0 0 1 0
0 0 0 0 0
0 1 0 0 0
0 1 0 0 0
0 0 0 0 0
0 1 0 0 0
0 0 0 0 0
0 0 0 0 0
0 1 0 0 0
0 1 0 0 0
0 0 0 0 0
0 0 0 0 0
0 0 0 0 0
0 1 0 0 0
0 1 0 0 0
0 1 0 0 0
0 1 0 0 0
0 1 0 0 0
0 0 1 0 0
0 0 1 0 0
0 0 1 0 0
0 0 1 0 0
0 0 0 0 0
0 0 1 0 0
0 0 1 0 0
0 0 1 0 0
0 0 1 0 0
